%% Data file ทางเลือก สำหรับ 03_cakes_param.mzn
%% วัตถุดิบมากขึ้น — ดูว่าคำตอบเปลี่ยนไปอย่างไร
%% รันด้วย: minizinc 03_cakes_param.mzn 03_pantry2.dzn

flour  = 8000;   % แป้ง 8 กิโลกรัม
banana = 11;     % กล้วย 11 ลูก
sugar  = 3000;   % น้ำตาล 3 กิโลกรัม
butter = 1500;   % เนย 1.5 กิโลกรัม
cocoa  = 800;    % โกโก้ 800 กรัม
